c Sudoku solution
p cnf 729 0
217 0
234 0
265 0
286 0
328 0
336 0
342 0
393 0
497 0
553 0
579 0
596 0
626 0
651 0
683 0
761 0
848 0
854 0
899 0
918 0
929 0
933 0
966 0
981 0
471 0
311 0
995 0
974 0
952 0
947 0
863 0
773 0
876 0
716 0
724 0
389 0
364 0
375 0
357 0
177 0
259 0
168 0
156 0
446 0
458 0
755 0
749 0
184 0
414 0
423 0
485 0
113 0
222 0
125 0
139 0
192 0
291 0
278 0
141 0
243 0
619 0
432 0
515 0
469 0
544 0
645 0
694 0
812 0
737 0
887 0
821 0
835 0
527 0
531 0
638 0
562 0
667 0
588 0
672 0
782 0
798 0
